Academic license - for non-commercial use only - expires 2022-10-07
Read LP format model from file ./model.lp
Reading time = 0.01 seconds
OBJROW: 100 rows, 2500 columns, 5000 nonzeros
Gurobi Optimizer version 9.1.2 build v9.1.2rc0 (linux64)
Thread count: 2 physical cores, 4 logical processors, using up to 4 threads
Optimize a model with 100 rows, 2500 columns and 5000 nonzeros
Model fingerprint: 0xc123eb34
Variable types: 0 continuous, 2500 integer (0 binary)
Coefficient statistics:
  Matrix range     [1e+00, 1e+00]
  Objective range  [5e+00, 5e+01]
  Bounds range     [1e+00, 1e+00]
  RHS range        [1e+00, 1e+00]
Found heuristic solution: objective -1393.218150
Presolve time: 0.01s
Presolved: 100 rows, 2500 columns, 5000 nonzeros
Variable types: 0 continuous, 2500 integer (2500 binary)

Root relaxation: objective -2.420885e+03, 107 iterations, 0.00 seconds

    Nodes    |    Current Node    |     Objective Bounds      |     Work
 Expl Unexpl |  Obj  Depth IntInf | Incumbent    BestBd   Gap | It/Node Time

*    0     0               0    -2420.884500 -2420.8845  0.00%     -    0s

Explored 0 nodes (107 simplex iterations) in 0.02 seconds
Thread count was 4 (of 4 available processors)

Solution count 2: -2420.88 -1393.22 
No other solutions better than -2420.88

Optimal solution found (tolerance 1.00e-04)
Best objective -2.420884500000e+03, best bound -2.420884500000e+03, gap 0.0000%
real 0m0,064s user 0m0,048s sys 0m0,000s
